NAME          MEZCLA
ROWS
 G  N
 G  P
 G  K
 G  S
 G  MG
 G  B
 G  ZN
 G  DEN
 E  WT
 N  COST
 N  PRICE
COLUMNS
*234567890123456789012345678901234567890123456789012345678901
    I184600   N             0.180000   P             0.460000   
    I184600   DEN           0.002142   WT            1.000000   
    I184600   COST        183.000000   PRICE       228.800000   
    I184600   SCALE       907.194000   
    I115200   N             0.110000   P             0.520000   
    I115200   DEN           0.002404   WT            1.000000   
    I115200   COST        183.000000   PRICE       228.750000   
    I115200   SCALE      1000.000000   
    I004600   P             0.460000   DEN           0.001915   
    I004600   WT            1.000000   COST        143.000000   
    I004600   PRICE       178.800000   SCALE       907.194000   
    I460000   N             0.460000   DEN           0.000335   
    I460000   WT            1.000000   COST        160.000000   
    I460000   PRICE       200.000000   SCALE       907.194000   
    I210000   N             0.210000   S             0.240000   
    I210000   DEN           0.002732   WT            1.000000   
    I210000   COST        110.000000   PRICE       137.500000   
    I210000   SCALE       907.194000   
    I000062   K             0.620000   DEN           0.008082   
    I000062   WT            1.000000   COST         90.000000   
    I000062   PRICE       112.500000   SCALE      1000.000000   
    I000022   K             0.220000   S             0.220000   
    I000022   MG            0.110000   DEN           0.001371   
    I000022   WT            1.000000   COST        110.000000   
    I000022   PRICE       137.500000   SCALE       907.194000   
    I20S36Z   S             0.200000   ZN            0.360000   
    I20S36Z   DEN           0.001741   WT            1.000000   
    I20S36Z   COST        400.000000   PRICE       500.000000   
    I20S36Z   SCALE       907.194000   
    I14B000   B             0.143000   DEN           0.000352   
    I14B000   WT            1.000000   COST        420.000000   
    I14B000   PRICE       525.000000   SCALE       907.194000   
    RELLENO   DEN           0.011100   WT            1.000000   
    RELLENO   COST         30.000000   PRICE        37.500000   
    RELLENO   SCALE      1000.000000   
    PRODUCTO  WT           -1.000000   COST          0.000000   
    PRODUCTO  PRICE         0.000000   SCALE         1.000000   
*234567890123456789012345678901234567890123456789012345678901
RHS
RANGES
ENDATA
